8 4 1 1 111111
15 2 1 3 4 2 2 3 7 4 5 2 2 3 4 3 2 2 2 4 7 1 4 2 1 2 2 2 1 3 3 3 1 1 1 2 1 1 3 3 1 1 7 1 3 3 2 1 6 4 5 2 3 1 4 5 2 3 5 4 7 1 3 6 
15 2 2 3 4 1 2 2 7 3 1 1 1 7 1 3 6 1 3 4 1 1 4 2 1 4 2 6 2 1 4 3 3 2 2 2 3 4 2 1 5 3 7 1 3 1 1 2 7 2 1 1 4 6 2 3 2 4 5 2 1 1 4 3 
15 1 1 5 1 1 5 1 1 2 2 1 4 2 6 1 1 4 1 4 7 2 1 4 3 6 2 1 6 4 1 1 1 1 1 1 7 2 1 5 3 5 2 3 6 4 7 2 3 7 4 2 2 2 3 4 1 1 2 5 
15 2 1 5 4 5 2 1 1 2 5 2 2 4 3 2 1 3 5 2 2 2 3 2 1 3 7 2 3 2 4 2 2 2 6 3 3 2 3 5 4 2 2 1 7 4 4 2 3 1 4 4 2 1 5 4 1 2 1 4 4 4 2 2 4 4 4 1 1 4 
15 2 2 6 4 4 2 1 3 3 1 1 1 2 1 2 5 1 4 4 2 2 2 4 6 2 2 7 4 3 2 1 6 4 2 2 2 2 3 1 1 2 3 2 1 5 2 7 1 1 2 2 2 7 4 6 2 1 7 3 3 1 4 3 
15 1 2 1 2 1 2 3 4 2 3 2 4 7 2 2 6 4 7 1 2 3 2 1 2 4 3 1 2 5 2 1 6 4 3 2 1 4 2 2 2 1 7 2 6 2 1 1 3 5 2 3 1 4 3 1 1 1 2 2 1 3 5 2 2 5 4 1 
15 1 3 4 2 1 1 2 7 1 3 3 2 1 2 3 6 1 2 3 1 3 5 2 1 7 2 3 2 2 4 4 7 2 2 4 4 6 2 2 3 3 2 1 1 2 2 2 3 3 6 2 1 2 2 5 1 1 6 1 4 5 
15 2 1 7 3 6 1 1 7 2 3 5 4 6 1 1 5 2 1 4 4 3 1 1 6 2 1 3 2 4 2 2 6 3 5 2 3 2 4 2 1 1 4 1 2 3 2 1 2 4 3 2 1 3 4 1 2 1 4 4 3 2 3 5 4 2 
0 3 1 2 6 
1 0 3 3 4 5 
1 0 3 3 4 5 
2 2 1 2 7 8 
2 1 2 2 8 9 
2 1 2 2 9 11 
1 0 2 7 9 
2 3 6 1 13 
2 4 3 1 13 
3 5 6 4 3 10 13 14 
1 9 1 12 
1 5 2 12 14 
2 10 11 0 
3 7 9 8 0 
2 9 11 0 
0 3 16 18 20 
1 15 2 21 23 
0 1 18 
2 15 17 3 19 24 25 
1 18 1 26 
1 15 3 23 24 26 
1 16 3 24 25 27 
0 2 23 26 
3 16 20 22 1 27 
3 18 20 21 1 29 
2 18 21 1 28 
3 20 22 19 2 27 28 
3 21 26 23 1 29 
2 26 25 0 
2 27 24 0 
0 1 31 
1 30 3 33 34 35 
0 2 33 35 
2 32 31 3 38 39 40 
1 31 2 38 42 
2 31 32 3 38 39 40 
0 2 37 40 
1 36 1 39 
3 34 35 33 2 41 43 
3 35 33 37 1 41 
3 33 36 35 2 41 42 
3 39 40 38 1 44 
2 34 40 1 43 
2 42 38 1 44 
2 43 41 0 
0 2 46 50 
1 45 2 52 58 
0 3 48 50 52 
1 47 2 51 54 
0 3 50 52 53 
3 49 47 45 2 51 55 
2 48 50 1 57 
3 47 49 46 2 54 55 
1 49 3 54 55 57 
3 48 52 53 1 56 
3 52 50 53 1 56 
2 54 55 1 59 
2 51 53 1 59 
1 46 1 59 
3 56 57 58 0 
0 3 61 62 63 
1 60 3 64 66 67 
1 60 3 64 66 68 
1 60 3 64 66 67 
3 62 61 63 1 74 
0 1 67 
3 62 63 61 1 69 
3 61 63 65 1 71 
1 62 2 69 72 
2 68 66 1 73 
0 1 72 
1 67 2 73 74 
2 70 68 2 73 74 
3 71 69 72 0 
3 64 72 71 0 
0 3 77 78 80 
0 3 77 78 80 
2 75 76 3 79 81 87 
2 76 75 1 81 
1 77 1 83 
2 76 75 2 81 87 
3 78 77 80 2 83 85 
0 2 85 87 
2 81 79 1 84 
1 83 1 86 
2 81 82 3 86 88 89 
2 84 85 0 
3 82 80 77 1 89 
1 85 0 
2 87 85 0 
0 3 91 92 99 
1 90 2 94 96 
1 90 1 94 
0 1 96 
2 92 91 3 98 100 103 
0 3 96 97 99 
3 93 91 95 2 98 102 
1 95 1 103 
2 94 96 2 101 104 
2 90 95 2 100 102 
2 94 99 2 101 104 
2 100 98 0 
2 96 99 1 103 
3 102 97 94 1 104 
3 98 103 100 0 
0 3 106 115 116 
1 105 2 107 108 
1 106 2 109 112 
1 106 3 109 111 112 
2 108 107 2 110 117 
1 109 3 113 114 118 
1 108 3 113 114 118 
2 107 108 2 113 114 
3 110 112 111 0 
3 110 111 112 1 119 
1 105 2 117 119 
1 105 1 119 
2 109 115 1 118 
3 117 111 110 0 
3 114 116 115 0 
